computational_data/real_data/solutions/wine_trial_002_lex.sol
Optimal - objective value 5.66666800
      0 r_0                         0                       1
      1 r_1                         1                       1
      2 r_2                         0                       1
      3 r_3                         0                       1
      4 r_4                         0                0.972222
      5 r_5                         0                0.972222
      6 r_6                         0                0.944444
      7 r_7                         0                0.944444
      8 r_8                         0                0.944444
      9 r_9                         0                0.944444
     10 r_10                        0                0.944444
     11 r_11                        0                0.916667
     12 r_12                        0                0.916667
     13 r_13                        1                0.916667
     14 r_14                        0                0.916667
     15 r_15                        1                0.916667
     16 b_0                         0                       1
     17 b_1                         0                       1
     18 b_2                         0                       1
     19 b_3                         1                       1
     20 b_4                         0                0.972222
     21 b_5                         0                0.972222
     22 b_6                         0                0.944444
     23 b_7                         0                0.944444
     24 b_8                         0                0.944444
     25 b_9                         0                0.944444
     26 b_10                        0                0.944444
     27 b_11                        0                0.916667
     28 b_12                        1                0.916667
     29 b_13                        0                0.916667
     30 b_14                        1                0.916667
     31 b_15                        0                0.916667
