computational_data/real_data/logs/wine_trial_002_lex.log
Welcome to the CBC MILP Solver 
Version: 2.10.12 
Build Date: Aug 20 2024 

command line - /opt/homebrew/bin/cbc computational_data/real_data/lp/wine_trial_002_lex.lp seconds 10.0 solve solu computational_data/real_data/solutions/wine_trial_002_lex.sol (default strategy 1)
 CoinLpIO::readLp(): Maximization problem reformulated as minimization
Coin0009I Switching back to maximization to get correct duals etc
seconds was changed from 1e+100 to 10
Continuous objective value is 5.77778 - 0.00 seconds
Cgl0003I 0 fixed, 0 tightened bounds, 93 strengthened rows, 0 substitutions
Cgl0003I 0 fixed, 0 tightened bounds, 87 strengthened rows, 0 substitutions
Cgl0003I 0 fixed, 0 tightened bounds, 79 strengthened rows, 0 substitutions
Cgl0003I 0 fixed, 0 tightened bounds, 72 strengthened rows, 0 substitutions
Cgl0003I 0 fixed, 0 tightened bounds, 42 strengthened rows, 0 substitutions
Cgl0003I 0 fixed, 0 tightened bounds, 31 strengthened rows, 0 substitutions
Cgl0003I 0 fixed, 0 tightened bounds, 17 strengthened rows, 0 substitutions
Cgl0003I 0 fixed, 0 tightened bounds, 12 strengthened rows, 0 substitutions
Cgl0003I 0 fixed, 0 tightened bounds, 5 strengthened rows, 0 substitutions
Cgl0004I processed model has 78 rows, 30 columns (30 integer (30 of which binary)) and 572 elements
Cbc0038I Initial state - 11 integers unsatisfied sum - 3.2
Cbc0038I Pass   1: suminf.    0.00000 (0) obj. 5.66667 iterations 18
Cbc0038I Solution found of 5.66667
Cbc0038I Before mini branch and bound, 19 integers at bound fixed and 0 continuous
Cbc0038I Full problem 78 rows 30 columns, reduced to 17 rows 10 columns
Cbc0038I Mini branch and bound did not improve solution (0.01 seconds)
Cbc0038I Round again with cutoff of 5.66779
Cbc0038I Reduced cost fixing fixed 4 variables on major pass 2
Cbc0038I Pass   2: suminf.    0.44356 (9) obj. 5.66779 iterations 14
Cbc0038I Pass   3: suminf.    0.44356 (9) obj. 5.66779 iterations 3
Cbc0038I Pass   4: suminf.    2.70702 (9) obj. 5.66779 iterations 15
Cbc0038I Pass   5: suminf.    2.70702 (9) obj. 5.66779 iterations 5
Cbc0038I Pass   6: suminf.    0.52421 (9) obj. 5.66779 iterations 12
Cbc0038I Pass   7: suminf.    0.44356 (9) obj. 5.66779 iterations 4
Cbc0038I Pass   8: suminf.    2.70702 (9) obj. 5.66779 iterations 12
Cbc0038I Pass   9: suminf.    0.44393 (9) obj. 5.66779 iterations 9
Cbc0038I Pass  10: suminf.    0.44393 (9) obj. 5.66779 iterations 6
Cbc0038I Pass  11: suminf.    0.40324 (8) obj. 5.66779 iterations 15
Cbc0038I Pass  12: suminf.    0.40324 (8) obj. 5.66779 iterations 7
Cbc0038I Pass  13: suminf.    2.70702 (9) obj. 5.66779 iterations 14
Cbc0038I Pass  14: suminf.    2.70702 (9) obj. 5.66779 iterations 7
Cbc0038I Pass  15: suminf.    0.52421 (9) obj. 5.66779 iterations 17
Cbc0038I Pass  16: suminf.    0.44356 (9) obj. 5.66779 iterations 7
Cbc0038I Pass  17: suminf.    0.44356 (9) obj. 5.66779 iterations 6
Cbc0038I Pass  18: suminf.    0.44356 (9) obj. 5.66779 iterations 6
Cbc0038I Pass  19: suminf.    2.70702 (9) obj. 5.66779 iterations 12
Cbc0038I Pass  20: suminf.    2.70702 (9) obj. 5.66779 iterations 2
Cbc0038I Pass  21: suminf.    0.52421 (9) obj. 5.66779 iterations 15
Cbc0038I Pass  22: suminf.    0.68602 (10) obj. 5.66779 iterations 9
Cbc0038I Pass  23: suminf.    0.44393 (9) obj. 5.66779 iterations 3
Cbc0038I Pass  24: suminf.    2.97983 (10) obj. 5.66779 iterations 11
Cbc0038I Pass  25: suminf.    0.40324 (8) obj. 5.66779 iterations 7
Cbc0038I Pass  26: suminf.    0.40324 (8) obj. 5.66779 iterations 1
Cbc0038I Pass  27: suminf.    2.97983 (10) obj. 5.66779 iterations 15
Cbc0038I Pass  28: suminf.    0.40324 (8) obj. 5.66779 iterations 16
Cbc0038I Pass  29: suminf.    0.40324 (8) obj. 5.66779 iterations 4
Cbc0038I Pass  30: suminf.    0.40324 (8) obj. 5.66779 iterations 13
Cbc0038I Pass  31: suminf.    0.40324 (8) obj. 5.66779 iterations 3
Cbc0038I No solution found this major pass
Cbc0038I Before mini branch and bound, 7 integers at bound fixed and 0 continuous
Cbc0038I Full problem 78 rows 30 columns, reduced to 61 rows 23 columns
Cbc0038I Mini branch and bound did not improve solution (0.01 seconds)
Cbc0038I After 0.01 seconds - Feasibility pump exiting with objective of 5.66667 - took 0.01 seconds
Cbc0012I Integer solution of 5.666668 found by feasibility pump after 0 iterations and 0 nodes (0.01 seconds)
Cbc0038I Full problem 78 rows 30 columns, reduced to 17 rows 10 columns
Cbc0031I 2 added rows had average density of 24
Cbc0013I At root node, 7 cuts changed objective from 5.6777784 to 5.666668 in 1 passes
Cbc0014I Cut generator 0 (Probing) - 0 row cuts average 0.0 elements, 0 column cuts (0 active)  in 0.000 seconds - new frequency is -100
Cbc0014I Cut generator 1 (Gomory) - 3 row cuts average 24.0 elements, 0 column cuts (0 active)  in 0.000 seconds - new frequency is 1
Cbc0014I Cut generator 2 (Knapsack) - 0 row cuts average 0.0 elements, 0 column cuts (0 active)  in 0.000 seconds - new frequency is -100
Cbc0014I Cut generator 3 (Clique) - 0 row cuts average 0.0 elements, 0 column cuts (0 active)  in 0.000 seconds - new frequency is -100
Cbc0014I Cut generator 4 (MixedIntegerRounding2) - 0 row cuts average 0.0 elements, 0 column cuts (0 active)  in 0.000 seconds - new frequency is -100
Cbc0014I Cut generator 5 (FlowCover) - 0 row cuts average 0.0 elements, 0 column cuts (0 active)  in 0.000 seconds - new frequency is -100
Cbc0014I Cut generator 6 (TwoMirCuts) - 4 row cuts average 17.8 elements, 0 column cuts (0 active)  in 0.000 seconds - new frequency is -100
Cbc0001I Search completed - best objective 5.666668, took 7 iterations and 0 nodes (0.01 seconds)
Cbc0035I Maximum depth 0, 4 variables fixed on reduced cost
Cuts at root node changed objective from 5.67778 to 5.66667
Probing was tried 1 times and created 0 cuts of which 0 were active after adding rounds of cuts (0.000 seconds)
Gomory was tried 1 times and created 3 cuts of which 0 were active after adding rounds of cuts (0.000 seconds)
Knapsack was tried 1 times and created 0 cuts of which 0 were active after adding rounds of cuts (0.000 seconds)
Clique was tried 1 times and created 0 cuts of which 0 were active after adding rounds of cuts (0.000 seconds)
MixedIntegerRounding2 was tried 1 times and created 0 cuts of which 0 were active after adding rounds of cuts (0.000 seconds)
FlowCover was tried 1 times and created 0 cuts of which 0 were active after adding rounds of cuts (0.000 seconds)
TwoMirCuts was tried 1 times and created 4 cuts of which 0 were active after adding rounds of cuts (0.000 seconds)
ZeroHalf was tried 1 times and created 0 cuts of which 0 were active after adding rounds of cuts (0.000 seconds)

Result - Optimal solution found

Objective value:                5.66666800
Enumerated nodes:               0
Total iterations:               7
Time (CPU seconds):             0.02
Time (Wallclock seconds):       0.02

Total time (CPU seconds):       0.02   (Wallclock seconds):       0.02

